result&benchmarks/Data/Ex1/verify/Output/sum_non_eq-3_process_dc_iter1Output/Counterexample.2.smt2
(set-info :source |printed by MathSAT|)
(declare-fun |main::result@2| () (_ BitVec 32))
(declare-fun |sum::n__param__@2| () (_ BitVec 32))
(declare-fun |main::local_18@2| () (_ BitVec 32))
(declare-fun |sum::m__param__@2| () (_ BitVec 32))
(declare-fun |sum::n@2| () (_ BitVec 32))
(declare-fun |sum::m@2| () (_ BitVec 32))
(declare-fun |sum::__retval__@2| () (_ BitVec 32))
(declare-fun |main::uVar1@4| () (_ BitVec 32))
(assert (let ((.def_20 (= |sum::m__param__@2| |sum::m@2|)))(let ((.def_18 (= |sum::n__param__@2| |sum::n@2|)))(let ((.def_21 (and .def_18 .def_20)))(let ((.def_15 (= |main::local_18@2| |sum::m__param__@2|)))(let ((.def_12 (= |main::result@2| |sum::n__param__@2|)))(let ((.def_16 (and .def_12 .def_15)))(let ((.def_72 (and .def_16 .def_21)))(let ((.def_22 (= |sum::n@2| (_ bv0 32))))(let ((.def_73 (and .def_22 .def_72)))(let ((.def_40 (= |sum::m@2| |sum::__retval__@2|)))(let ((.def_74 (and .def_40 .def_73)))(let ((.def_43 (= |sum::__retval__@2| |main::uVar1@4|)))(let ((.def_75 (and .def_43 .def_74)))(let ((.def_45 (bvadd |main::result@2| |main::local_18@2|)))(let ((.def_46 (= |main::uVar1@4| .def_45)))(let ((.def_76 (and .def_46 .def_75))).def_76)))))))))))))))))