result&benchmarks/Data/Ex1/verify/Output/sum_non_eq-3_process_dc_iter1Output/Counterexample.2.txt
none:	N46 -{INIT GLOBAL VARS}-> N68
/usr/include/assert.h, lines 69-71:	N68 -{void __assert_fail(const char *__assertion, const char *__file, unsigned int __line, const char *__function);}-> N69
/usr/include/assert.h, lines 74-76:	N69 -{void __assert_perror_fail(int __errnum, const char *__file, unsigned int __line, const char *__function);}-> N70
/usr/include/assert.h, lines 81-82:	N70 -{void __assert(const char *__assertion, const char *__file, int __line);}-> N71
/usr/include/x86_64-linux-gnu/bits/types.h, line 31:	N71 -{typedef unsigned char __u_char;}-> N72
/usr/include/x86_64-linux-gnu/bits/types.h, line 32:	N72 -{typedef unsigned short int __u_short;}-> N73
/usr/include/x86_64-linux-gnu/bits/types.h, line 33:	N73 -{typedef unsigned int __u_int;}-> N74
/usr/include/x86_64-linux-gnu/bits/types.h, line 34:	N74 -{typedef unsigned long int __u_long;}-> N75
/usr/include/x86_64-linux-gnu/bits/types.h, line 37:	N75 -{typedef signed char __int8_t;}-> N76
/usr/include/x86_64-linux-gnu/bits/types.h, line 38:	N76 -{typedef unsigned char __uint8_t;}-> N77
/usr/include/x86_64-linux-gnu/bits/types.h, line 39:	N77 -{typedef signed short int __int16_t;}-> N78
/usr/include/x86_64-linux-gnu/bits/types.h, line 40:	N78 -{typedef unsigned short int __uint16_t;}-> N79
/usr/include/x86_64-linux-gnu/bits/types.h, line 41:	N79 -{typedef signed int __int32_t;}-> N80
/usr/include/x86_64-linux-gnu/bits/types.h, line 42:	N80 -{typedef unsigned int __uint32_t;}-> N81
/usr/include/x86_64-linux-gnu/bits/types.h, line 44:	N81 -{typedef signed long int __int64_t;}-> N82
/usr/include/x86_64-linux-gnu/bits/types.h, line 45:	N82 -{typedef unsigned long int __uint64_t;}-> N83
/usr/include/x86_64-linux-gnu/bits/types.h, line 52:	N83 -{typedef __int8_t __int_least8_t;}-> N84
/usr/include/x86_64-linux-gnu/bits/types.h, line 53:	N84 -{typedef __uint8_t __uint_least8_t;}-> N85
/usr/include/x86_64-linux-gnu/bits/types.h, line 54:	N85 -{typedef __int16_t __int_least16_t;}-> N86
/usr/include/x86_64-linux-gnu/bits/types.h, line 55:	N86 -{typedef __uint16_t __uint_least16_t;}-> N87
/usr/include/x86_64-linux-gnu/bits/types.h, line 56:	N87 -{typedef __int32_t __int_least32_t;}-> N88
/usr/include/x86_64-linux-gnu/bits/types.h, line 57:	N88 -{typedef __uint32_t __uint_least32_t;}-> N89
/usr/include/x86_64-linux-gnu/bits/types.h, line 58:	N89 -{typedef __int64_t __int_least64_t;}-> N90
/usr/include/x86_64-linux-gnu/bits/types.h, line 59:	N90 -{typedef __uint64_t __uint_least64_t;}-> N91
/usr/include/x86_64-linux-gnu/bits/types.h, line 63:	N91 -{typedef long int __quad_t;}-> N92
/usr/include/x86_64-linux-gnu/bits/types.h, line 64:	N92 -{typedef unsigned long int __u_quad_t;}-> N93
/usr/include/x86_64-linux-gnu/bits/types.h, line 72:	N93 -{typedef long int __intmax_t;}-> N94
/usr/include/x86_64-linux-gnu/bits/types.h, line 73:	N94 -{typedef unsigned long int __uintmax_t;}-> N95
/usr/include/x86_64-linux-gnu/bits/types.h, line 145:	N95 -{typedef unsigned long int __dev_t;}-> N96
/usr/include/x86_64-linux-gnu/bits/types.h, line 146:	N96 -{typedef unsigned int __uid_t;}-> N97
/usr/include/x86_64-linux-gnu/bits/types.h, line 147:	N97 -{typedef unsigned int __gid_t;}-> N98
/usr/include/x86_64-linux-gnu/bits/types.h, line 148:	N98 -{typedef unsigned long int __ino_t;}-> N99
/usr/include/x86_64-linux-gnu/bits/types.h, line 149:	N99 -{typedef unsigned long int __ino64_t;}-> N100
/usr/include/x86_64-linux-gnu/bits/types.h, line 150:	N100 -{typedef unsigned int __mode_t;}-> N101
/usr/include/x86_64-linux-gnu/bits/types.h, line 151:	N101 -{typedef unsigned long int __nlink_t;}-> N102
/usr/include/x86_64-linux-gnu/bits/types.h, line 152:	N102 -{typedef long int __off_t;}-> N103
/usr/include/x86_64-linux-gnu/bits/types.h, line 153:	N103 -{typedef long int __off64_t;}-> N104
/usr/include/x86_64-linux-gnu/bits/types.h, line 154:	N104 -{typedef int __pid_t;}-> N105
/usr/include/x86_64-linux-gnu/bits/types.h, line 155:	N105 -{struct __anon_type___fsid_t {   int __val[2]; } ;}-> N106
/usr/include/x86_64-linux-gnu/bits/types.h, line 155:	N106 -{typedef struct __anon_type___fsid_t __fsid_t;}-> N107
/usr/include/x86_64-linux-gnu/bits/types.h, line 156:	N107 -{typedef long int __clock_t;}-> N108
/usr/include/x86_64-linux-gnu/bits/types.h, line 157:	N108 -{typedef unsigned long int __rlim_t;}-> N109
/usr/include/x86_64-linux-gnu/bits/types.h, line 158:	N109 -{typedef unsigned long int __rlim64_t;}-> N110
/usr/include/x86_64-linux-gnu/bits/types.h, line 159:	N110 -{typedef unsigned int __id_t;}-> N111
/usr/include/x86_64-linux-gnu/bits/types.h, line 160:	N111 -{typedef long int __time_t;}-> N112
/usr/include/x86_64-linux-gnu/bits/types.h, line 161:	N112 -{typedef unsigned int __useconds_t;}-> N113
/usr/include/x86_64-linux-gnu/bits/types.h, line 162:	N113 -{typedef long int __suseconds_t;}-> N114
/usr/include/x86_64-linux-gnu/bits/types.h, line 163:	N114 -{typedef long int __suseconds64_t;}-> N115
/usr/include/x86_64-linux-gnu/bits/types.h, line 165:	N115 -{typedef int __daddr_t;}-> N116
/usr/include/x86_64-linux-gnu/bits/types.h, line 166:	N116 -{typedef int __key_t;}-> N117
/usr/include/x86_64-linux-gnu/bits/types.h, line 169:	N117 -{typedef int __clockid_t;}-> N118
/usr/include/x86_64-linux-gnu/bits/types.h, line 172:	N118 -{typedef void *__timer_t;}-> N119
/usr/include/x86_64-linux-gnu/bits/types.h, line 175:	N119 -{typedef long int __blksize_t;}-> N120
/usr/include/x86_64-linux-gnu/bits/types.h, line 180:	N120 -{typedef long int __blkcnt_t;}-> N121
/usr/include/x86_64-linux-gnu/bits/types.h, line 181:	N121 -{typedef long int __blkcnt64_t;}-> N122
/usr/include/x86_64-linux-gnu/bits/types.h, line 184:	N122 -{typedef unsigned long int __fsblkcnt_t;}-> N123
/usr/include/x86_64-linux-gnu/bits/types.h, line 185:	N123 -{typedef unsigned long int __fsblkcnt64_t;}-> N124
/usr/include/x86_64-linux-gnu/bits/types.h, line 188:	N124 -{typedef unsigned long int __fsfilcnt_t;}-> N125
/usr/include/x86_64-linux-gnu/bits/types.h, line 189:	N125 -{typedef unsigned long int __fsfilcnt64_t;}-> N126
/usr/include/x86_64-linux-gnu/bits/types.h, line 192:	N126 -{typedef long int __fsword_t;}-> N127
/usr/include/x86_64-linux-gnu/bits/types.h, line 194:	N127 -{typedef long int __ssize_t;}-> N128
/usr/include/x86_64-linux-gnu/bits/types.h, line 197:	N128 -{typedef long int __syscall_slong_t;}-> N129
/usr/include/x86_64-linux-gnu/bits/types.h, line 199:	N129 -{typedef unsigned long int __syscall_ulong_t;}-> N130
/usr/include/x86_64-linux-gnu/bits/types.h, line 203:	N130 -{typedef __off64_t __loff_t;}-> N131
/usr/include/x86_64-linux-gnu/bits/types.h, line 204:	N131 -{typedef char *__caddr_t;}-> N132
/usr/include/x86_64-linux-gnu/bits/types.h, line 207:	N132 -{typedef long int __intptr_t;}-> N133
/usr/include/x86_64-linux-gnu/bits/types.h, line 210:	N133 -{typedef unsigned int __socklen_t;}-> N134
/usr/include/x86_64-linux-gnu/bits/types.h, line 215:	N134 -{typedef int __sig_atomic_t;}-> N135
/usr/include/x86_64-linux-gnu/bits/stdint-intn.h, line 24:	N135 -{typedef __int8_t int8_t;}-> N136
/usr/include/x86_64-linux-gnu/bits/stdint-intn.h, line 25:	N136 -{typedef __int16_t int16_t;}-> N137
/usr/include/x86_64-linux-gnu/bits/stdint-intn.h, line 26:	N137 -{typedef __int32_t int32_t;}-> N138
/usr/include/x86_64-linux-gnu/bits/stdint-intn.h, line 27:	N138 -{typedef __int64_t int64_t;}-> N139
/usr/include/x86_64-linux-gnu/bits/stdint-uintn.h, line 24:	N139 -{typedef __uint8_t uint8_t;}-> N140
/usr/include/x86_64-linux-gnu/bits/stdint-uintn.h, line 25:	N140 -{typedef __uint16_t uint16_t;}-> N141
/usr/include/x86_64-linux-gnu/bits/stdint-uintn.h, line 26:	N141 -{typedef __uint32_t uint32_t;}-> N142
/usr/include/x86_64-linux-gnu/bits/stdint-uintn.h, line 27:	N142 -{typedef __uint64_t uint64_t;}-> N143
/usr/include/stdint.h, line 43:	N143 -{typedef __int_least8_t int_least8_t;}-> N144
/usr/include/stdint.h, line 44:	N144 -{typedef __int_least16_t int_least16_t;}-> N145
/usr/include/stdint.h, line 45:	N145 -{typedef __int_least32_t int_least32_t;}-> N146
/usr/include/stdint.h, line 46:	N146 -{typedef __int_least64_t int_least64_t;}-> N147
/usr/include/stdint.h, line 49:	N147 -{typedef __uint_least8_t uint_least8_t;}-> N148
/usr/include/stdint.h, line 50:	N148 -{typedef __uint_least16_t uint_least16_t;}-> N149
/usr/include/stdint.h, line 51:	N149 -{typedef __uint_least32_t uint_least32_t;}-> N150
/usr/include/stdint.h, line 52:	N150 -{typedef __uint_least64_t uint_least64_t;}-> N151
/usr/include/stdint.h, line 58:	N151 -{typedef signed char int_fast8_t;}-> N152
/usr/include/stdint.h, line 60:	N152 -{typedef long int int_fast16_t;}-> N153
/usr/include/stdint.h, line 61:	N153 -{typedef long int int_fast32_t;}-> N154
/usr/include/stdint.h, line 62:	N154 -{typedef long int int_fast64_t;}-> N155
/usr/include/stdint.h, line 71:	N155 -{typedef unsigned char uint_fast8_t;}-> N156
/usr/include/stdint.h, line 73:	N156 -{typedef unsigned long int uint_fast16_t;}-> N157
/usr/include/stdint.h, line 74:	N157 -{typedef unsigned long int uint_fast32_t;}-> N158
/usr/include/stdint.h, line 75:	N158 -{typedef unsigned long int uint_fast64_t;}-> N159
/usr/include/stdint.h, line 87:	N159 -{typedef long int intptr_t;}-> N160
/usr/include/stdint.h, line 90:	N160 -{typedef unsigned long int uintptr_t;}-> N161
/usr/include/stdint.h, line 101:	N161 -{typedef __intmax_t intmax_t;}-> N162
/usr/include/stdint.h, line 102:	N162 -{typedef __uintmax_t uintmax_t;}-> N163
/usr/lib/gcc/x86_64-linux-gnu/11/include/stddef.h, line 209:	N163 -{typedef unsigned long int size_t;}-> N164
/usr/lib/gcc/x86_64-linux-gnu/11/include/stddef.h, line 321:	N164 -{typedef int wchar_t;}-> N165
/usr/include/stdlib.h, lines 59-63:	N165 -{struct __anon_type_div_t {   int quot;   int rem; } ;}-> N166
/usr/include/stdlib.h, lines 59-63:	N166 -{typedef struct __anon_type_div_t div_t;}-> N167
/usr/include/stdlib.h, lines 67-71:	N167 -{struct __anon_type_ldiv_t {   long int quot;   long int rem; } ;}-> N168
/usr/include/stdlib.h, lines 67-71:	N168 -{typedef struct __anon_type_ldiv_t ldiv_t;}-> N169
/usr/include/stdlib.h, lines 77-81:	N169 -{struct __anon_type_lldiv_t {   long long int quot;   long long int rem; } ;}-> N170
/usr/include/stdlib.h, lines 77-81:	N170 -{typedef struct __anon_type_lldiv_t lldiv_t;}-> N171
/usr/include/stdlib.h, line 98:	N171 -{size_t __ctype_get_mb_cur_max();}-> N172
/usr/include/stdlib.h, lines 102-103:	N172 -{double atof(const char *__nptr);}-> N173
/usr/include/stdlib.h, lines 105-106:	N173 -{int atoi(const char *__nptr);}-> N174
/usr/include/stdlib.h, lines 108-109:	N174 -{long int atol(const char *__nptr);}-> N175
/usr/include/stdlib.h, lines 113-114:	N175 -{long long int atoll(const char *__nptr);}-> N176
/usr/include/stdlib.h, lines 118-120:	N176 -{double strtod(const char *__nptr, char **__endptr);}-> N177
/usr/include/stdlib.h, lines 124-125:	N177 -{float strtof(const char *__nptr, char **__endptr);}-> N178
/usr/include/stdlib.h, lines 127-129:	N178 -{long double strtold(const char *__nptr, char **__endptr);}-> N179
/usr/include/stdlib.h, lines 177-179:	N179 -{long int strtol(const char *__nptr, char **__endptr, int __base);}-> N180
/usr/include/stdlib.h, lines 181-183:	N180 -{unsigned long int strtoul(const char *__nptr, char **__endptr, int __base);}-> N181
/usr/include/stdlib.h, lines 188-190:	N181 -{long long int strtoq(const char *__nptr, char **__endptr, int __base);}-> N182
/usr/include/stdlib.h, lines 193-195:	N182 -{unsigned long long int strtouq(const char *__nptr, char **__endptr, int __base);}-> N183
/usr/include/stdlib.h, lines 201-203:	N183 -{long long int strtoll(const char *__nptr, char **__endptr, int __base);}-> N184
/usr/include/stdlib.h, lines 206-208:	N184 -{unsigned long long int strtoull(const char *__nptr, char **__endptr, int __base);}-> N185
/usr/include/stdlib.h, line 386:	N185 -{char *l64a(long int __n);}-> N186
/usr/include/stdlib.h, lines 389-390:	N186 -{long int a64l(const char *__s);}-> N187
/usr/include/x86_64-linux-gnu/sys/types.h, line 33:	N187 -{typedef __u_char u_char;}-> N188
/usr/include/x86_64-linux-gnu/sys/types.h, line 34:	N188 -{typedef __u_short u_short;}-> N189
/usr/include/x86_64-linux-gnu/sys/types.h, line 35:	N189 -{typedef __u_int u_int;}-> N190
/usr/include/x86_64-linux-gnu/sys/types.h, line 36:	N190 -{typedef __u_long u_long;}-> N191
/usr/include/x86_64-linux-gnu/sys/types.h, line 37:	N191 -{typedef __quad_t quad_t;}-> N192
/usr/include/x86_64-linux-gnu/sys/types.h, line 38:	N192 -{typedef __u_quad_t u_quad_t;}-> N193
/usr/include/x86_64-linux-gnu/sys/types.h, line 39:	N193 -{typedef __fsid_t fsid_t;}-> N194
/usr/include/x86_64-linux-gnu/sys/types.h, line 42:	N194 -{typedef __loff_t loff_t;}-> N195
/usr/include/x86_64-linux-gnu/sys/types.h, line 47:	N195 -{typedef __ino_t ino_t;}-> N196
/usr/include/x86_64-linux-gnu/sys/types.h, line 59:	N196 -{typedef __dev_t dev_t;}-> N197
/usr/include/x86_64-linux-gnu/sys/types.h, line 64:	N197 -{typedef __gid_t gid_t;}-> N198
/usr/include/x86_64-linux-gnu/sys/types.h, line 69:	N198 -{typedef __mode_t mode_t;}-> N199
/usr/include/x86_64-linux-gnu/sys/types.h, line 74:	N199 -{typedef __nlink_t nlink_t;}-> N200
/usr/include/x86_64-linux-gnu/sys/types.h, line 79:	N200 -{typedef __uid_t uid_t;}-> N201
/usr/include/x86_64-linux-gnu/sys/types.h, line 85:	N201 -{typedef __off_t off_t;}-> N202
/usr/include/x86_64-linux-gnu/sys/types.h, line 97:	N202 -{typedef __pid_t pid_t;}-> N203
/usr/include/x86_64-linux-gnu/sys/types.h, line 103:	N203 -{typedef __id_t id_t;}-> N204
/usr/include/x86_64-linux-gnu/sys/types.h, line 108:	N204 -{typedef __ssize_t ssize_t;}-> N205
/usr/include/x86_64-linux-gnu/sys/types.h, line 114:	N205 -{typedef __daddr_t daddr_t;}-> N206
/usr/include/x86_64-linux-gnu/sys/types.h, line 115:	N206 -{typedef __caddr_t caddr_t;}-> N207
/usr/include/x86_64-linux-gnu/sys/types.h, line 121:	N207 -{typedef __key_t key_t;}-> N208
/usr/include/x86_64-linux-gnu/bits/types/clock_t.h, line 7:	N208 -{typedef __clock_t clock_t;}-> N209
/usr/include/x86_64-linux-gnu/bits/types/clockid_t.h, line 7:	N209 -{typedef __clockid_t clockid_t;}-> N210
/usr/include/x86_64-linux-gnu/bits/types/time_t.h, line 10:	N210 -{typedef __time_t time_t;}-> N211
/usr/include/x86_64-linux-gnu/bits/types/timer_t.h, line 7:	N211 -{typedef __timer_t timer_t;}-> N212
/usr/include/x86_64-linux-gnu/sys/types.h, line 148:	N212 -{typedef unsigned long int ulong;}-> N213
/usr/include/x86_64-linux-gnu/sys/types.h, line 149:	N213 -{typedef unsigned short int ushort;}-> N214
/usr/include/x86_64-linux-gnu/sys/types.h, line 150:	N214 -{typedef unsigned int uint;}-> N215
/usr/include/x86_64-linux-gnu/sys/types.h, line 158:	N215 -{typedef __uint8_t u_int8_t;}-> N216
/usr/include/x86_64-linux-gnu/sys/types.h, line 159:	N216 -{typedef __uint16_t u_int16_t;}-> N217
/usr/include/x86_64-linux-gnu/sys/types.h, line 160:	N217 -{typedef __uint32_t u_int32_t;}-> N218
/usr/include/x86_64-linux-gnu/sys/types.h, line 161:	N218 -{typedef __uint64_t u_int64_t;}-> N219
/usr/include/x86_64-linux-gnu/sys/types.h, line 164:	N219 -{typedef signed int register_t;}-> N220
/usr/include/x86_64-linux-gnu/bits/byteswap.h, lines 33-41:	N220 -{__uint16_t __bswap_16(__uint16_t __bsx);}-> N221
/usr/include/x86_64-linux-gnu/bits/byteswap.h, lines 48-56:	N221 -{__uint32_t __bswap_32(__uint32_t __bsx);}-> N222
/usr/include/x86_64-linux-gnu/bits/byteswap.h, lines 69-77:	N222 -{__uint64_t __bswap_64(__uint64_t __bsx);}-> N223
/usr/include/x86_64-linux-gnu/bits/uintn-identity.h, lines 32-36:	N223 -{__uint16_t __uint16_identity(__uint16_t __x);}-> N224
/usr/include/x86_64-linux-gnu/bits/uintn-identity.h, lines 38-42:	N224 -{__uint32_t __uint32_identity(__uint32_t __x);}-> N225
/usr/include/x86_64-linux-gnu/bits/uintn-identity.h, lines 44-48:	N225 -{__uint64_t __uint64_identity(__uint64_t __x);}-> N226
/usr/include/x86_64-linux-gnu/bits/types/__sigset_t.h, lines 5-8:	N226 -{struct __anon_type___sigset_t {   unsigned long int __val[32UL]; } ;}-> N227
/usr/include/x86_64-linux-gnu/bits/types/__sigset_t.h, lines 5-8:	N227 -{typedef struct __anon_type___sigset_t __sigset_t;}-> N228
/usr/include/x86_64-linux-gnu/bits/types/sigset_t.h, line 7:	N228 -{typedef __sigset_t sigset_t;}-> N229
/usr/include/x86_64-linux-gnu/bits/types/struct_timeval.h, lines 8-17:	N229 -{struct timeval {   __time_t tv_sec;   __suseconds_t tv_usec; } ;}-> N230
/usr/include/x86_64-linux-gnu/bits/types/struct_timespec.h, lines 11-31:	N230 -{struct timespec {   __time_t tv_sec;   __syscall_slong_t tv_nsec; } ;}-> N231
/usr/include/x86_64-linux-gnu/sys/select.h, line 43:	N231 -{typedef __suseconds_t suseconds_t;}-> N232
/usr/include/x86_64-linux-gnu/sys/select.h, line 49:	N232 -{typedef long int __fd_mask;}-> N233
/usr/include/x86_64-linux-gnu/sys/select.h, lines 59-70:	N233 -{struct __anon_type_fd_set {   __fd_mask __fds_bits[32]; } ;}-> N234
/usr/include/x86_64-linux-gnu/sys/select.h, lines 59-70:	N234 -{typedef struct __anon_type_fd_set fd_set;}-> N235
/usr/include/x86_64-linux-gnu/sys/select.h, line 77:	N235 -{typedef __fd_mask fd_mask;}-> N236
/usr/include/x86_64-linux-gnu/sys/select.h, lines 102-105:	N236 -{int select(int __nfds, fd_set *__readfds, fd_set *__writefds, fd_set *__exceptfds, struct timeval *__timeout);}-> N237
/usr/include/x86_64-linux-gnu/sys/select.h, lines 127-131:	N237 -{int pselect(int __nfds, fd_set *__readfds, fd_set *__writefds, fd_set *__exceptfds, const struct timespec *__timeout, const __sigset_t *__sigmask);}-> N238
/usr/include/x86_64-linux-gnu/sys/types.h, line 185:	N238 -{typedef __blksize_t blksize_t;}-> N239
/usr/include/x86_64-linux-gnu/sys/types.h, line 192:	N239 -{typedef __blkcnt_t blkcnt_t;}-> N240
/usr/include/x86_64-linux-gnu/sys/types.h, line 196:	N240 -{typedef __fsblkcnt_t fsblkcnt_t;}-> N241
/usr/include/x86_64-linux-gnu/sys/types.h, line 200:	N241 -{typedef __fsfilcnt_t fsfilcnt_t;}-> N242
/usr/include/x86_64-linux-gnu/bits/atomic_wide_counter.h, lines 28-32:	N242 -{struct __anon_type_0 {   unsigned int __low;   unsigned int __high; } ;}-> N243
/usr/include/x86_64-linux-gnu/bits/atomic_wide_counter.h, lines 25-33:	N243 -{union __anon_type___atomic_wide_counter {   unsigned long long int __value64;   struct __anon_type_0 __value32; } ;}-> N244
/usr/include/x86_64-linux-gnu/bits/atomic_wide_counter.h, lines 25-33:	N244 -{typedef union __anon_type___atomic_wide_counter __atomic_wide_counter;}-> N245
/usr/include/x86_64-linux-gnu/bits/thread-shared-types.h, lines 51-55:	N245 -{struct __pthread_internal_list {   struct __pthread_internal_list *__prev;   struct __pthread_internal_list *__next; } ;}-> N246
/usr/include/x86_64-linux-gnu/bits/thread-shared-types.h, lines 51-55:	N246 -{typedef struct __pthread_internal_list __pthread_list_t;}-> N247
/usr/include/x86_64-linux-gnu/bits/thread-shared-types.h, lines 57-60:	N247 -{struct __pthread_internal_slist {   struct __pthread_internal_slist *__next; } ;}-> N248
/usr/include/x86_64-linux-gnu/bits/thread-shared-types.h, lines 57-60:	N248 -{typedef struct __pthread_internal_slist __pthread_slist_t;}-> N249
/usr/include/x86_64-linux-gnu/bits/struct_mutex.h, lines 22-53:	N249 -{struct __pthread_mutex_s {   int __lock;   unsigned int __count;   int __owner;   unsigned int __nusers;   int __kind;   short __spins;   short __elision;   __pthread_list_t __list; } ;}-> N250
/usr/include/x86_64-linux-gnu/bits/struct_rwlock.h, lines 23-55:	N250 -{struct __pthread_rwlock_arch_t {   unsigned int __readers;   unsigned int __writers;   unsigned int __wrphase_futex;   unsigned int __writers_futex;   unsigned int __pad3;   unsigned int __pad4;   int __cur_writer;   int __shared;   signed char __rwelision;   unsigned char __pad1[7];   unsigned long int __pad2;   unsigned int __flags; } ;}-> N251
/usr/include/x86_64-linux-gnu/bits/thread-shared-types.h, lines 94-103:	N251 -{struct __pthread_cond_s {   __atomic_wide_counter __wseq;   __atomic_wide_counter __g1_start;   unsigned int __g_refs[2];   unsigned int __g_size[2];   unsigned int __g1_orig_size;   unsigned int __wrefs;   unsigned int __g_signals[2]; } ;}-> N252
/usr/include/x86_64-linux-gnu/bits/thread-shared-types.h, line 105:	N252 -{typedef unsigned int __tss_t;}-> N253
/usr/include/x86_64-linux-gnu/bits/thread-shared-types.h, line 106:	N253 -{typedef unsigned long int __thrd_t;}-> N254
/usr/include/x86_64-linux-gnu/bits/thread-shared-types.h, lines 108-111:	N254 -{struct __anon_type___once_flag {   int __data; } ;}-> N255
/usr/include/x86_64-linux-gnu/bits/thread-shared-types.h, lines 108-111:	N255 -{typedef struct __anon_type___once_flag __once_flag;}-> N256
/usr/include/x86_64-linux-gnu/bits/pthreadtypes.h, line 27:	N256 -{typedef unsigned long int pthread_t;}-> N257
/usr/include/x86_64-linux-gnu/bits/pthreadtypes.h, lines 32-36:	N257 -{union __anon_type_pthread_mutexattr_t {   char __size[4];   int __align; } ;}-> N258
/usr/include/x86_64-linux-gnu/bits/pthreadtypes.h, lines 32-36:	N258 -{typedef union __anon_type_pthread_mutexattr_t pthread_mutexattr_t;}-> N259
/usr/include/x86_64-linux-gnu/bits/pthreadtypes.h, lines 41-45:	N259 -{union __anon_type_pthread_condattr_t {   char __size[4];   int __align; } ;}-> N260
/usr/include/x86_64-linux-gnu/bits/pthreadtypes.h, lines 41-45:	N260 -{typedef union __anon_type_pthread_mutexattr_t pthread_condattr_t;}-> N261
/usr/include/x86_64-linux-gnu/bits/pthreadtypes.h, line 49:	N261 -{typedef unsigned int pthread_key_t;}-> N262
/usr/include/x86_64-linux-gnu/bits/pthreadtypes.h, line 53:	N262 -{typedef int pthread_once_t;}-> N263
/usr/include/x86_64-linux-gnu/bits/pthreadtypes.h, lines 56-60:	N263 -{union pthread_attr_t {   char __size[56];   long int __align; } ;}-> N264
/usr/include/x86_64-linux-gnu/bits/pthreadtypes.h, line 62:	N264 -{typedef union pthread_attr_t pthread_attr_t;}-> N265
/usr/include/x86_64-linux-gnu/bits/pthreadtypes.h, lines 67-72:	N265 -{union __anon_type_pthread_mutex_t {   struct __pthread_mutex_s __data;   char __size[40];   long int __align; } ;}-> N266
/usr/include/x86_64-linux-gnu/bits/pthreadtypes.h, lines 67-72:	N266 -{typedef union __anon_type_pthread_mutex_t pthread_mutex_t;}-> N267
/usr/include/x86_64-linux-gnu/bits/pthreadtypes.h, lines 75-80:	N267 -{union __anon_type_pthread_cond_t {   struct __pthread_cond_s __data;   char __size[48];   long long int __align; } ;}-> N268
/usr/include/x86_64-linux-gnu/bits/pthreadtypes.h, lines 75-80:	N268 -{typedef union __anon_type_pthread_cond_t pthread_cond_t;}-> N269
/usr/include/x86_64-linux-gnu/bits/pthreadtypes.h, lines 86-91:	N269 -{union __anon_type_pthread_rwlock_t {   struct __pthread_rwlock_arch_t __data;   char __size[56];   long int __align; } ;}-> N270
/usr/include/x86_64-linux-gnu/bits/pthreadtypes.h, lines 86-91:	N270 -{typedef union __anon_type_pthread_rwlock_t pthread_rwlock_t;}-> N271
/usr/include/x86_64-linux-gnu/bits/pthreadtypes.h, lines 93-97:	N271 -{union __anon_type_pthread_rwlockattr_t {   char __size[8];   long int __align; } ;}-> N272
/usr/include/x86_64-linux-gnu/bits/pthreadtypes.h, lines 93-97:	N272 -{typedef union __anon_type_pthread_rwlockattr_t pthread_rwlockattr_t;}-> N273
/usr/include/x86_64-linux-gnu/bits/pthreadtypes.h, line 103:	N273 -{typedef volatile int pthread_spinlock_t;}-> N274
/usr/include/x86_64-linux-gnu/bits/pthreadtypes.h, lines 108-112:	N274 -{union __anon_type_pthread_barrier_t {   char __size[32];   long int __align; } ;}-> N275
/usr/include/x86_64-linux-gnu/bits/pthreadtypes.h, lines 108-112:	N275 -{typedef union __anon_type_pthread_barrier_t pthread_barrier_t;}-> N276
/usr/include/x86_64-linux-gnu/bits/pthreadtypes.h, lines 114-118:	N276 -{union __anon_type_pthread_barrierattr_t {   char __size[4];   int __align; } ;}-> N277
/usr/include/x86_64-linux-gnu/bits/pthreadtypes.h, lines 114-118:	N277 -{typedef union __anon_type_pthread_mutexattr_t pthread_barrierattr_t;}-> N278
/usr/include/stdlib.h, line 402:	N278 -{long int random();}-> N279
/usr/include/stdlib.h, line 405:	N279 -{void srandom(unsigned int __seed);}-> N280
/usr/include/stdlib.h, lines 411-412:	N280 -{char *initstate(unsigned int __seed, char *__statebuf, size_t __statelen);}-> N281
/usr/include/stdlib.h, line 416:	N281 -{char *setstate(char *__statebuf);}-> N282
/usr/include/stdlib.h, lines 424-433:	N282 -{struct random_data {   int32_t *fptr;   int32_t *rptr;   int32_t *state;   int rand_type;   int rand_deg;   int rand_sep;   int32_t *end_ptr; } ;}-> N283
/usr/include/stdlib.h, lines 435-436:	N283 -{int random_r(struct random_data *__buf, int32_t *__result);}-> N284
/usr/include/stdlib.h, lines 438-439:	N284 -{int srandom_r(unsigned int __seed, struct random_data *__buf);}-> N285
/usr/include/stdlib.h, lines 441-444:	N285 -{int initstate_r(unsigned int __seed, char *__statebuf, size_t __statelen, struct random_data *__buf);}-> N286
/usr/include/stdlib.h, lines 446-448:	N286 -{int setstate_r(char *__statebuf, struct random_data *__buf);}-> N287
/usr/include/stdlib.h, line 454:	N287 -{int rand();}-> N288
/usr/include/stdlib.h, line 456:	N288 -{void srand(unsigned int __seed);}-> N289
/usr/include/stdlib.h, line 460:	N289 -{int rand_r(unsigned int *__seed);}-> N290
/usr/include/stdlib.h, line 468:	N290 -{double drand48();}-> N291
/usr/include/stdlib.h, line 469:	N291 -{double erand48(unsigned short int __xsubi[3]);}-> N292
/usr/include/stdlib.h, line 472:	N292 -{long int lrand48();}-> N293
/usr/include/stdlib.h, lines 473-474:	N293 -{long int nrand48(unsigned short int __xsubi[3]);}-> N294
/usr/include/stdlib.h, line 477:	N294 -{long int mrand48();}-> N295
/usr/include/stdlib.h, lines 478-479:	N295 -{long int jrand48(unsigned short int __xsubi[3]);}-> N296
/usr/include/stdlib.h, line 482:	N296 -{void srand48(long int __seedval);}-> N297
/usr/include/stdlib.h, lines 483-484:	N297 -{unsigned short int *seed48(unsigned short int __seed16v[3]);}-> N298
/usr/include/stdlib.h, line 485:	N298 -{void lcong48(unsigned short int __param[7]);}-> N299
/usr/include/stdlib.h, lines 491-499:	N299 -{struct drand48_data {   unsigned short int __x[3];   unsigned short int __old_x[3];   unsigned short int __c;   unsigned short int __init;   unsigned long long int __a; } ;}-> N300
/usr/include/stdlib.h, lines 502-503:	N300 -{int drand48_r(struct drand48_data *__buffer, double *__result);}-> N301
/usr/include/stdlib.h, lines 504-506:	N301 -{int erand48_r(unsigned short int __xsubi[3], struct drand48_data *__buffer, double *__result);}-> N302
/usr/include/stdlib.h, lines 509-511:	N302 -{int lrand48_r(struct drand48_data *__buffer, long int *__result);}-> N303
/usr/include/stdlib.h, lines 512-515:	N303 -{int nrand48_r(unsigned short int __xsubi[3], struct drand48_data *__buffer, long int *__result);}-> N304
/usr/include/stdlib.h, lines 518-520:	N304 -{int mrand48_r(struct drand48_data *__buffer, long int *__result);}-> N305
/usr/include/stdlib.h, lines 521-524:	N305 -{int jrand48_r(unsigned short int __xsubi[3], struct drand48_data *__buffer, long int *__result);}-> N306
/usr/include/stdlib.h, lines 527-528:	N306 -{int srand48_r(long int __seedval, struct drand48_data *__buffer);}-> N307
/usr/include/stdlib.h, lines 530-531:	N307 -{int seed48_r(unsigned short int __seed16v[3], struct drand48_data *__buffer);}-> N308
/usr/include/stdlib.h, lines 533-535:	N308 -{int lcong48_r(unsigned short int __param[7], struct drand48_data *__buffer);}-> N309
/usr/include/stdlib.h, lines 540-541:	N309 -{void *malloc(size_t __size);}-> N310
/usr/include/stdlib.h, lines 543-544:	N310 -{void *calloc(size_t __nmemb, size_t __size);}-> N311
/usr/include/stdlib.h, lines 551-552:	N311 -{void *realloc(void *__ptr, size_t __size);}-> N312
/usr/include/stdlib.h, line 555:	N312 -{void free(void *__ptr);}-> N313
/usr/include/stdlib.h, lines 563-566:	N313 -{void *reallocarray(void *__ptr, size_t __nmemb, size_t __size);}-> N314
/usr/include/alloca.h, line 32:	N314 -{void *alloca(size_t __size);}-> N315
/usr/include/stdlib.h, lines 580-581:	N315 -{void *valloc(size_t __size);}-> N316
/usr/include/stdlib.h, lines 586-587:	N316 -{int posix_memalign(void **__memptr, size_t __alignment, size_t __size);}-> N317
/usr/include/stdlib.h, lines 592-594:	N317 -{void *aligned_alloc(size_t __alignment, size_t __size);}-> N318
/usr/include/stdlib.h, line 598:	N318 -{void abort();}-> N319
/usr/include/stdlib.h, line 602:	N319 -{int atexit(void (*__func)());}-> N320
/usr/include/stdlib.h, line 610:	N320 -{int at_quick_exit(void (*__func)());}-> N321
/usr/include/stdlib.h, lines 617-618:	N321 -{int on_exit(void (*__func)(int __status, void *__arg), void *__arg);}-> N322
/usr/include/stdlib.h, line 624:	N322 -{void exit(int __status);}-> N323
/usr/include/stdlib.h, line 630:	N323 -{void quick_exit(int __status);}-> N324
/usr/include/stdlib.h, line 636:	N324 -{void _Exit(int __status);}-> N325
/usr/include/stdlib.h, line 641:	N325 -{char *getenv(const char *__name);}-> N326
/usr/include/stdlib.h, line 654:	N326 -{int putenv(char *__string);}-> N327
/usr/include/stdlib.h, lines 660-661:	N327 -{int setenv(const char *__name, const char *__value, int __replace);}-> N328
/usr/include/stdlib.h, line 664:	N328 -{int unsetenv(const char *__name);}-> N329
/usr/include/stdlib.h, line 671:	N329 -{int clearenv();}-> N330
/usr/include/stdlib.h, line 682:	N330 -{char *mktemp(char *__template);}-> N331
/usr/include/stdlib.h, line 695:	N331 -{int mkstemp(char *__template);}-> N332
/usr/include/stdlib.h, line 717:	N332 -{int mkstemps(char *__template, int __suffixlen);}-> N333
/usr/include/stdlib.h, line 738:	N333 -{char *mkdtemp(char *__template);}-> N334
/usr/include/stdlib.h, line 791:	N334 -{int system(const char *__command);}-> N335
/usr/include/stdlib.h, lines 808-809:	N335 -{char *realpath(const char *__name, char *__resolved);}-> N336
/usr/include/stdlib.h, line 816:	N336 -{typedef int (*__compar_fn_t)(const void *, const void *);}-> N337
/usr/include/stdlib.h, lines 828-830:	N337 -{void *bsearch(const void *__key, const void *__base, size_t __nmemb, size_t __size, __compar_fn_t __compar);}-> N338
/usr/include/stdlib.h, lines 838-839:	N338 -{void qsort(void *__base, size_t __nmemb, size_t __size, __compar_fn_t __compar);}-> N339
/usr/include/stdlib.h, line 848:	N339 -{int abs(int __x);}-> N340
/usr/include/stdlib.h, line 849:	N340 -{long int labs(long int __x);}-> N341
/usr/include/stdlib.h, lines 852-853:	N341 -{long long int llabs(long long int __x);}-> N342
/usr/include/stdlib.h, lines 860-861:	N342 -{div_t div(int __numer, int __denom);}-> N343
/usr/include/stdlib.h, lines 862-863:	N343 -{ldiv_t ldiv(long int __numer, long int __denom);}-> N344
/usr/include/stdlib.h, lines 866-868:	N344 -{lldiv_t lldiv(long long int __numer, long long int __denom);}-> N345
/usr/include/stdlib.h, lines 880-881:	N345 -{char *ecvt(double __value, int __ndigit, int *__decpt, int *__sign);}-> N346
/usr/include/stdlib.h, lines 886-887:	N346 -{char *fcvt(double __value, int __ndigit, int *__decpt, int *__sign);}-> N347
/usr/include/stdlib.h, lines 892-893:	N347 -{char *gcvt(double __value, int __ndigit, char *__buf);}-> N348
/usr/include/stdlib.h, lines 898-900:	N348 -{char *qecvt(long double __value, int __ndigit, int *__decpt, int *__sign);}-> N349
/usr/include/stdlib.h, lines 901-903:	N349 -{char *qfcvt(long double __value, int __ndigit, int *__decpt, int *__sign);}-> N350
/usr/include/stdlib.h, lines 904-905:	N350 -{char *qgcvt(long double __value, int __ndigit, char *__buf);}-> N351
/usr/include/stdlib.h, lines 910-912:	N351 -{int ecvt_r(double __value, int __ndigit, int *__decpt, int *__sign, char *__buf, size_t __len);}-> N352
/usr/include/stdlib.h, lines 913-915:	N352 -{int fcvt_r(double __value, int __ndigit, int *__decpt, int *__sign, char *__buf, size_t __len);}-> N353
/usr/include/stdlib.h, lines 917-920:	N353 -{int qecvt_r(long double __value, int __ndigit, int *__decpt, int *__sign, char *__buf, size_t __len);}-> N354
/usr/include/stdlib.h, lines 921-924:	N354 -{int qfcvt_r(long double __value, int __ndigit, int *__decpt, int *__sign, char *__buf, size_t __len);}-> N355
/usr/include/stdlib.h, line 930:	N355 -{int mblen(const char *__s, size_t __n);}-> N356
/usr/include/stdlib.h, lines 933-934:	N356 -{int mbtowc(wchar_t *__pwc, const char *__s, size_t __n);}-> N357
/usr/include/stdlib.h, line 937:	N357 -{int wctomb(char *__s, wchar_t __wchar);}-> N358
/usr/include/stdlib.h, lines 941-943:	N358 -{size_t mbstowcs(wchar_t *__pwcs, const char *__s, size_t __n);}-> N359
/usr/include/stdlib.h, lines 945-949:	N359 -{size_t wcstombs(char *__s, const wchar_t *__pwcs, size_t __n);}-> N360
/usr/include/stdlib.h, line 956:	N360 -{int rpmatch(const char *__response);}-> N361
/usr/include/stdlib.h, lines 967-970:	N361 -{int getsubopt(char **__optionp, char * const *__tokens, char **__valuep);}-> N362
/usr/include/stdlib.h, lines 1013-1014:	N362 -{int getloadavg(double __loadavg[], int __nelem);}-> N363
lines 8-10:	N363 -{void assume(int cond);}-> N364
lines 12-20:	N364 -{uint sum(uint n, uint m);}-> N365
lines 22-34:	N365 -{int main();}-> N366
none:	N366 -{Function start dummy edge}-> N47
line 23:	N47 -{uint uVar1;}-> N48
line 24:	N48 -{uint local_18;}-> N49
	local_18 == 0U;
line 25:	N49 -{uint result;}-> N50
	result == 0U;
line 26:	N50 -{uint b;}-> N51
line 27:	N51 -{uint a;}-> N52
line 29:	N52 -{sum(result, local_18)}-> N37
none:	N37 -{Function start dummy edge}-> N38
	n == 0U;
	m == 0U;
line 13:	N38 -{uint m_local;}-> N39
	n == 0U;
	m == 0U;
line 14:	N39 -{uint n_local;}-> N40
line 16:	N40 -{[!(n != 0)]}-> N41
	n == 0U;
	n == 0U;
line 19:	N41 -{return m;}-> N36
	m = 0
line 29:	N36 -{Return edge from sum to main: uVar1 = sum(result, local_18);}-> N53
line 30:	N53 -{[uVar1 == (local_18 + result)]}-> N55
	uVar1 == 0U;
	uVar1 == 0U;
local_18 + result == 0
line 31:	N55 -{int __CPAchecker_TMP_2;}-> N56
line 31:	N56 -{}-> N58
line 31:	N58 -{__CPAchecker_TMP_2 = 0;}-> N60
line 31:	N60 -{4UL;}-> N61
line 31:	N61 -{}-> N64
line 31:	N64 -{__assert_fail("0 && \"Assertion failed: uVar1 should not equal local_18 + result\"", "/home/zyl/biVerify/CPA_DATA2/C/F/llmfix/realOutput/iterationTry/sum_non_eq-3_process_dc_iter1.c", 31, "__PRETTY_FUNCTION__");}-> N368
